CMD:
./solvers/bin/cadical --plain --no-reduce -t 1600 ./data/cnfs//6s339rb19/6s339rb19.24.cnf

c --- [ banner ] -------------------------------------------------------------
c 
c CaDiCaL SAT Solver
c Copyright (c) 2016-2024
c A. Biere, M. Fleury, N. Froleyks, K. Fazekas, F. Pollitt, T. Faller
c JKU Linz, University of Freiburg, TU Wien
c 
c Version 2.1.3 5296d3d2a9bf48c154ab2acb5e44625776d821bf
c g++ (Gentoo 12.3.1_p20230526 p2) 12.3.1 20230526 -Wall -Wextra -O3 -DNDEBUG
c Sat Aug 9 07:26:21 PDT 2025 Linux cedar2.int.cedar.computecanada.ca 5.14.0-362.24.2.el9_3.x86_64 x86_64
c 
c --- [ limit ] --------------------------------------------------------------
c 
c setting time limit to 1600 seconds real time (due to '-t 1600')
c 
c --- [ parsing input ] ------------------------------------------------------
c 
c reading DIMACS file from './data/cnfs//6s339rb19/6s339rb19.24.cnf'
c opening file to read './data/cnfs//6s339rb19/6s339rb19.24.cnf'
c found 'p cnf 254487 707919' header
c parsed 707919 clauses in 0.10 seconds process time
c 
c --- [ options ] ------------------------------------------------------------
c 
c   --compact=false                (different from default 'true')
c   --decompose=false              (different from default 'true')
c   --deduplicate=false            (different from default 'true')
c   --elim=false                   (different from default 'true')
c   --probe=false                  (different from default 'true')
c   --reduce=false                 (different from default 'true')
c   --subsume=false                (different from default 'true')
c   --ternary=false                (different from default 'true')
c   --transred=false               (different from default 'true')
c   --vivify=false                 (different from default 'true')
c 
c --- [ solving ] ------------------------------------------------------------
c 
c time measured in process time since initialization
c 
c  seconds  reductions  redundant  irredundant
c         MB    restarts       trail       variables
c          level   conflicts       glue          remaining
c 
c *  0.10 93  0 0   0    0    0  0% 0 482894 128122 50%
c {  0.12 94  0 0   0    0    0  0% 0 482894 128122 50%
c i  0.12 94 169 0   0   13   12 53% 2 482894 128121 50%
c i  0.12 94 167 0   0   29   26 53% 2 482894 128120 50%
c i  0.12 94 166 0   0   57   50 53% 2 482894 128113 50%
c i  0.12 94 166 0   0   62   53 53% 2 482894 128107 50%
c i  0.12 94 166 0   0   65   55 53% 2 482894 128105 50%
c }  0.12 94 165 0   0   78   65 53% 2 482894 127343 50%
c 0  0.12 94 165 0   0   78   65 53% 2 482894 127343 50%
c 
c --- [ result ] -------------------------------------------------------------
c 
s UNSATISFIABLE
c 
c --- [ run-time profiling ] -------------------------------------------------
c 
c process time taken by individual solving procedures
c (percentage relative to process time for solving)
c 
c         0.10  524.85% parse
c         0.02   99.37% search
c         0.01   76.57% lucky
c         0.00   22.72% unstable
c         0.00    0.00% simplify
c   =================================
c         0.02   15.94% solve
c 
c last line shows process time for solving
c (percentage relative to total process time)
c 
c --- [ statistics ] ---------------------------------------------------------
c 
c chronological:                35        44.87 %  of conflicts
c conflicts:                    78      4062.29    per second
c decisions:                   255     13280.56    per second
c fixed:                    122426        48.11 %  of all variables
c learned:                      71        91.03 %  per conflict
c learned_lits:                308       100.00 %  learned literals
c minimized:                     0         0.00 %  learned literals
c shrunken:                     21         6.82 %  learned literals
c minishrunken:                 16         5.19 %  learned literals
c otfs:                          3         3.85 %  of conflict
c propagations:             163081         8.49 M  per second
c strengthened:                  3         0.00 %  of all clauses
c 
c seconds are measured in process time for solving
c 
c --- [ resources ] ----------------------------------------------------------
c 
c total process time since initialization:         0.12    seconds
c total real time since initialization:            0.13    seconds
c maximum resident set size of process:           92.49    MB
c 
c --- [ shutting down ] ------------------------------------------------------
c 
c exit 20
